<number of tasks>
1000

<cycle time>
1000

<order strength>
0,895


<task times>
1 238
2 29
3 72
4 46
5 213
6 105
7 286
8 75
9 127
10 60
11 62
12 278
13 107
14 207
15 212
16 138
17 204
18 228
19 180
20 318
21 86
22 299
23 237
24 43
25 185
26 92
27 127
28 269
29 93
30 177
31 116
32 78
33 171
34 103
35 166
36 74
37 106
38 54
39 52
40 94
41 165
42 142
43 33
44 116
45 135
46 98
47 108
48 133
49 68
50 40
51 110
52 133
53 93
54 180
55 115
56 223
57 179
58 171
59 299
60 176
61 87
62 103
63 157
64 93
65 201
66 43
67 71
68 167
69 182
70 90
71 39
72 187
73 83
74 86
75 202
76 119
77 153
78 155
79 100
80 116
81 357
82 27
83 223
84 105
85 103
86 135
87 64
88 49
89 291
90 110
91 133
92 87
93 198
94 31
95 127
96 90
97 141
98 74
99 165
100 100
101 122
102 360
103 283
104 92
105 158
106 168
107 169
108 302
109 30
110 237
111 39
112 111
113 233
114 163
115 67
116 90
117 75
118 135
119 150
120 282
121 328
122 82
123 166
124 58
125 43
126 42
127 31
128 37
129 190
130 116
131 41
132 202
133 88
134 213
135 129
136 186
137 158
138 129
139 172
140 37
141 216
142 116
143 265
144 48
145 140
146 111
147 72
148 230
149 172
150 191
151 71
152 190
153 108
154 221
155 321
156 206
157 117
158 154
159 195
160 81
161 138
162 113
163 151
164 141
165 150
166 262
167 43
168 135
169 162
170 150
171 159
172 111
173 251
174 92
175 164
176 51
177 124
178 114
179 80
180 40
181 34
182 65
183 159
184 193
185 84
186 162
187 78
188 205
189 108
190 87
191 96
192 198
193 69
194 267
195 82
196 23
197 357
198 173
199 62
200 231
201 50
202 93
203 170
204 99
205 203
206 33
207 184
208 133
209 113
210 155
211 35
212 229
213 176
214 143
215 184
216 149
217 80
218 248
219 163
220 197
221 221
222 256
223 162
224 49
225 108
226 124
227 62
228 110
229 300
230 135
231 204
232 47
233 257
234 151
235 140
236 30
237 220
238 50
239 66
240 140
241 41
242 88
243 21
244 111
245 78
246 42
247 78
248 203
249 35
250 166
251 61
252 150
253 29
254 211
255 283
256 167
257 93
258 175
259 84
260 195
261 115
262 76
263 22
264 256
265 63
266 62
267 135
268 53
269 49
270 218
271 85
272 185
273 275
274 192
275 293
276 250
277 280
278 34
279 113
280 74
281 142
282 55
283 230
284 223
285 139
286 80
287 27
288 142
289 91
290 77
291 131
292 156
293 150
294 55
295 111
296 103
297 43
298 54
299 137
300 26
301 259
302 403
303 241
304 97
305 183
306 157
307 184
308 79
309 76
310 72
311 251
312 89
313 223
314 55
315 163
316 95
317 82
318 104
319 84
320 110
321 189
322 217
323 271
324 192
325 160
326 138
327 130
328 35
329 136
330 273
331 244
332 246
333 201
334 78
335 178
336 188
337 103
338 128
339 126
340 77
341 220
342 137
343 191
344 24
345 26
346 198
347 69
348 38
349 85
350 374
351 199
352 80
353 118
354 61
355 161
356 285
357 84
358 198
359 79
360 236
361 162
362 67
363 112
364 101
365 117
366 108
367 98
368 103
369 208
370 237
371 265
372 165
373 299
374 156
375 75
376 21
377 353
378 89
379 33
380 152
381 179
382 197
383 90
384 146
385 124
386 81
387 176
388 136
389 163
390 69
391 98
392 177
393 50
394 83
395 117
396 72
397 116
398 201
399 64
400 121
401 91
402 99
403 154
404 86
405 202
406 121
407 227
408 115
409 42
410 89
411 58
412 34
413 92
414 48
415 146
416 142
417 28
418 152
419 125
420 57
421 82
422 260
423 194
424 141
425 112
426 26
427 238
428 32
429 93
430 91
431 156
432 268
433 237
434 139
435 224
436 195
437 48
438 21
439 26
440 70
441 158
442 46
443 234
444 130
445 83
446 206
447 84
448 60
449 57
450 35
451 273
452 210
453 190
454 73
455 129
456 167
457 309
458 161
459 80
460 27
461 173
462 129
463 84
464 133
465 73
466 161
467 76
468 110
469 329
470 179
471 149
472 90
473 74
474 86
475 181
476 150
477 24
478 165
479 84
480 168
481 104
482 76
483 99
484 103
485 93
486 235
487 190
488 28
489 117
490 198
491 43
492 192
493 61
494 202
495 209
496 89
497 133
498 119
499 77
500 78
501 195
502 160
503 73
504 79
505 41
506 111
507 128
508 35
509 75
510 113
511 82
512 121
513 120
514 31
515 74
516 99
517 86
518 165
519 50
520 162
521 265
522 74
523 102
524 100
525 38
526 63
527 282
528 187
529 237
530 123
531 65
532 143
533 204
534 231
535 74
536 39
537 216
538 136
539 132
540 138
541 96
542 25
543 80
544 338
545 207
546 264
547 103
548 175
549 218
550 37
551 55
552 58
553 250
554 115
555 369
556 116
557 180
558 148
559 36
560 57
561 183
562 106
563 210
564 148
565 131
566 138
567 71
568 29
569 142
570 47
571 84
572 164
573 93
574 242
575 234
576 73
577 171
578 185
579 221
580 41
581 112
582 220
583 118
584 132
585 175
586 91
587 52
588 22
589 202
590 37
591 165
592 124
593 99
594 45
595 223
596 84
597 233
598 64
599 60
600 166
601 96
602 113
603 129
604 116
605 148
606 171
607 48
608 149
609 217
610 325
611 34
612 301
613 262
614 201
615 174
616 255
617 175
618 132
619 30
620 197
621 98
622 114
623 165
624 183
625 86
626 181
627 98
628 228
629 113
630 167
631 164
632 121
633 68
634 174
635 226
636 77
637 78
638 60
639 80
640 74
641 234
642 84
643 128
644 203
645 124
646 176
647 132
648 67
649 76
650 61
651 294
652 254
653 247
654 79
655 296
656 115
657 292
658 157
659 193
660 101
661 138
662 52
663 140
664 79
665 191
666 258
667 244
668 45
669 22
670 189
671 57
672 98
673 36
674 28
675 110
676 113
677 192
678 153
679 155
680 85
681 234
682 246
683 134
684 123
685 27
686 77
687 111
688 57
689 88
690 231
691 262
692 56
693 248
694 105
695 111
696 43
697 136
698 115
699 196
700 211
701 125
702 55
703 151
704 270
705 156
706 130
707 246
708 69
709 31
710 118
711 206
712 41
713 121
714 95
715 105
716 42
717 63
718 179
719 161
720 279
721 67
722 114
723 158
724 55
725 52
726 215
727 46
728 35
729 135
730 69
731 154
732 238
733 21
734 109
735 99
736 40
737 83
738 134
739 326
740 184
741 183
742 218
743 227
744 93
745 34
746 244
747 204
748 87
749 261
750 39
751 307
752 210
753 159
754 233
755 82
756 227
757 259
758 120
759 128
760 212
761 226
762 69
763 240
764 224
765 202
766 87
767 26
768 136
769 103
770 94
771 27
772 127
773 40
774 73
775 280
776 108
777 116
778 289
779 160
780 211
781 144
782 446
783 154
784 79
785 170
786 103
787 83
788 120
789 59
790 133
791 131
792 283
793 61
794 46
795 245
796 84
797 221
798 48
799 24
800 63
801 109
802 79
803 178
804 63
805 92
806 160
807 78
808 44
809 188
810 215
811 192
812 133
813 122
814 36
815 141
816 113
817 261
818 186
819 53
820 135
821 137
822 151
823 45
824 84
825 129
826 59
827 44
828 97
829 23
830 143
831 128
832 189
833 171
834 87
835 316
836 52
837 81
838 101
839 82
840 165
841 175
842 249
843 316
844 89
845 77
846 158
847 146
848 148
849 117
850 215
851 164
852 83
853 267
854 246
855 63
856 168
857 144
858 105
859 244
860 82
861 46
862 163
863 188
864 198
865 86
866 83
867 120
868 201
869 188
870 34
871 262
872 134
873 175
874 113
875 100
876 97
877 179
878 177
879 178
880 107
881 172
882 229
883 179
884 190
885 198
886 222
887 235
888 75
889 207
890 80
891 183
892 205
893 52
894 196
895 234
896 170
897 142
898 21
899 27
900 102
901 85
902 20
903 561
904 102
905 149
906 123
907 58
908 223
909 138
910 142
911 286
912 120
913 156
914 112
915 93
916 254
917 248
918 152
919 108
920 61
921 29
922 77
923 90
924 154
925 290
926 75
927 106
928 196
929 110
930 128
931 184
932 40
933 124
934 135
935 67
936 247
937 47
938 170
939 39
940 37
941 151
942 284
943 222
944 166
945 106
946 27
947 35
948 68
949 69
950 236
951 172
952 230
953 183
954 22
955 33
956 351
957 138
958 101
959 332
960 93
961 83
962 115
963 111
964 269
965 121
966 195
967 124
968 126
969 315
970 240
971 169
972 148
973 37
974 257
975 279
976 32
977 98
978 40
979 49
980 38
981 136
982 138
983 22
984 316
985 247
986 382
987 147
988 132
989 114
990 186
991 29
992 163
993 87
994 169
995 140
996 203
997 87
998 111
999 36
1000 143

<precedence relations>
1,9
1,15
1,16
2,11
2,14
2,15
2,16
3,8
3,9
3,10
3,11
3,12
4,8
4,10
4,12
4,22
5,8
5,9
5,13
6,15
7,8
7,9
7,10
7,11
7,12
7,16
8,17
8,18
9,17
9,18
10,17
10,18
10,19
11,17
11,18
11,19
11,20
11,21
11,22
12,17
12,18
12,19
12,20
12,21
13,17
13,18
13,19
13,20
13,21
13,22
14,17
14,18
14,19
14,21
14,22
15,17
15,18
15,19
15,20
15,21
15,22
16,17
16,18
16,19
16,20
16,21
16,22
17,23
17,24
17,25
17,26
17,27
17,28
17,29
17,30
18,23
18,24
18,25
18,28
19,25
19,30
19,34
20,23
20,24
20,25
21,23
21,24
22,23
22,24
22,25
22,26
22,27
22,28
22,29
22,30
23,31
23,32
23,33
23,34
23,35
23,36
23,37
23,38
24,31
24,38
25,31
25,35
25,36
25,38
26,31
26,32
26,33
26,34
26,35
26,38
28,33
28,34
28,38
29,62
30,31
30,32
30,33
30,37
30,38
31,39
31,40
31,41
31,42
31,43
31,44
31,45
31,46
32,39
32,40
32,41
32,42
32,43
32,44
32,45
33,39
33,40
34,39
34,40
34,41
34,42
34,43
34,50
35,39
35,40
36,39
37,39
37,40
37,41
38,41
38,45
39,52
40,47
40,48
41,48
41,51
42,47
42,48
42,52
42,53
42,60
43,47
43,48
43,59
43,60
44,47
44,48
44,49
44,50
44,59
44,60
45,47
45,48
45,52
46,47
46,61
47,54
47,55
47,56
47,57
47,58
47,66
47,67
48,54
48,55
48,56
48,61
49,54
49,55
49,56
49,58
49,61
50,54
50,55
50,56
50,57
50,58
50,61
51,54
51,55
51,56
51,60
52,54
52,55
52,56
52,57
52,58
52,59
53,55
53,59
54,62
54,63
54,64
55,253
56,62
56,63
56,68
57,62
57,71
58,62
58,63
58,64
58,65
59,62
59,63
59,66
59,67
59,68
60,62
60,66
60,67
60,68
61,62
61,63
61,64
61,65
61,66
61,67
61,68
62,69
62,70
62,72
63,84
64,69
64,70
64,71
64,72
65,69
65,72
66,69
66,70
66,71
66,72
67,69
67,70
67,71
67,72
68,69
68,70
68,71
68,72
69,73
69,74
69,75
69,76
69,77
69,78
70,73
70,74
70,75
70,76
70,77
70,78
71,73
71,75
71,83
71,84
72,73
72,76
73,79
73,80
73,89
74,79
74,80
74,81
74,82
74,83
75,143
75,144
75,145
76,79
76,80
76,83
76,84
77,79
77,80
77,81
77,82
77,83
77,84
78,79
78,80
78,81
78,89
79,85
79,86
79,87
79,88
80,85
80,86
80,87
80,94
81,85
81,86
81,87
82,85
82,86
82,87
82,89
83,85
84,85
84,86
84,87
84,88
84,89
85,90
85,91
85,92
85,95
86,90
86,91
86,93
87,90
87,91
87,92
88,90
88,91
88,92
88,93
88,94
89,90
89,91
89,92
89,95
90,175
91,96
91,97
91,101
92,96
92,97
92,98
92,99
92,100
92,101
92,102
92,103
93,96
93,97
94,96
94,97
94,98
95,96
95,97
95,98
95,99
95,100
95,102
95,103
96,104
96,105
96,106
96,109
96,110
96,111
97,104
97,105
97,106
97,107
97,108
97,109
97,110
97,111
98,104
98,105
98,106
98,107
98,108
98,109
98,110
98,111
99,104
99,105
99,106
99,107
100,104
100,105
100,108
100,110
100,111
101,104
101,105
102,104
102,105
102,106
102,107
102,108
102,109
102,110
102,111
103,104
103,105
103,106
103,107
103,108
103,109
103,110
103,111
104,112
104,113
104,114
104,115
105,112
105,113
105,114
105,115
106,112
106,113
106,114
106,115
107,112
107,113
107,115
108,112
108,113
108,114
108,115
109,112
109,113
110,114
110,115
110,120
111,112
111,113
111,114
111,115
112,116
112,117
112,118
112,119
112,121
113,116
113,117
113,118
113,119
113,120
113,121
114,116
114,117
114,118
114,121
115,116
115,117
115,118
115,119
115,121
116,125
116,126
117,122
117,123
117,124
117,132
118,122
118,123
118,134
119,122
119,123
119,124
119,125
119,126
120,122
120,125
121,122
121,123
121,124
121,125
122,133
123,127
123,128
123,129
123,130
123,135
124,134
125,129
125,130
125,140
126,127
126,128
126,129
126,130
126,131
126,132
126,133
126,134
126,135
127,136
127,139
127,140
127,141
127,142
128,136
128,137
128,138
128,142
129,136
129,137
129,138
129,141
129,142
130,136
130,137
130,142
131,141
131,142
132,138
132,142
133,136
133,142
134,136
134,137
134,139
135,162
135,179
135,180
136,143
136,144
136,145
137,143
137,144
137,145
138,143
138,144
138,145
139,143
139,144
139,145
140,143
140,144
140,145
141,143
141,144
141,145
142,143
142,144
142,145
143,146
143,147
143,148
143,149
143,150
143,151
144,146
144,147
144,148
144,149
144,150
144,151
145,146
145,147
145,148
145,149
145,150
145,151
146,152
146,153
146,154
146,170
147,152
147,156
148,153
148,187
149,152
149,153
149,154
149,155
149,157
150,449
150,464
151,279
152,158
152,159
152,163
153,158
153,159
154,158
154,159
154,160
154,161
154,162
155,158
155,159
155,160
156,158
156,164
156,181
157,158
157,162
157,187
158,165
159,165
159,166
160,165
160,166
160,167
160,168
160,169
161,169
161,189
162,165
162,166
162,171
163,165
163,166
163,167
163,168
163,169
164,165
164,166
164,170
164,187
165,172
165,176
166,172
166,173
166,174
167,172
167,178
167,180
168,172
168,173
168,174
168,175
168,176
168,177
169,172
169,179
170,325
170,365
170,366
171,172
171,173
171,174
171,177
171,181
172,182
172,183
173,182
173,183
173,184
173,185
173,186
173,189
174,184
174,185
174,186
174,189
175,182
175,183
175,192
176,188
177,182
178,182
178,183
178,184
179,182
179,183
179,184
179,192
180,182
180,183
180,184
180,186
180,187
180,188
180,189
181,182
181,183
181,184
181,185
182,190
183,191
184,260
184,265
185,190
185,192
186,190
186,192
187,190
187,191
187,192
188,190
188,191
188,192
189,190
189,191
189,192
190,193
190,194
190,195
190,196
190,197
190,198
191,193
191,194
191,195
191,196
191,197
191,198
192,193
192,194
192,198
193,199
193,200
193,201
193,202
193,203
193,204
193,205
194,199
194,200
194,205
195,199
195,200
195,201
195,203
195,205
196,280
197,199
197,200
197,202
197,204
198,199
198,200
198,201
199,206
199,207
199,208
200,206
200,207
200,208
200,209
200,210
200,211
201,206
201,207
201,208
201,209
202,206
202,207
202,208
202,209
202,210
203,206
203,207
203,216
204,206
204,207
204,208
204,209
205,206
205,207
205,208
205,209
205,210
206,212
206,213
207,212
207,213
207,214
207,217
207,218
208,212
208,213
208,214
208,218
209,216
209,217
209,231
210,214
210,215
211,365
212,219
212,220
212,223
212,231
213,219
213,220
213,221
213,222
213,231
214,219
214,220
214,221
214,224
215,328
215,329
215,333
215,334
216,219
216,220
217,219
217,221
218,219
219,232
219,315
220,225
220,226
220,230
220,238
221,225
221,226
221,227
221,228
221,229
221,237
222,225
222,226
222,232
223,225
223,228
223,237
224,225
224,226
224,227
224,231
225,236
225,239
225,240
225,246
226,233
227,233
227,234
227,235
227,238
228,233
228,234
228,235
228,236
228,238
228,239
228,240
229,233
229,254
230,233
230,234
230,235
231,233
231,234
232,237
232,280
232,309
232,316
233,241
233,246
234,243
234,245
234,253
235,241
235,242
235,243
235,244
235,245
235,246
236,241
236,242
236,243
236,244
236,245
237,969
238,301
238,323
239,241
239,242
239,243
239,244
239,245
240,241
240,242
240,243
241,247
241,248
241,249
241,255
242,253
242,254
243,247
243,248
243,249
243,250
243,251
243,252
243,255
244,247
244,250
244,254
245,247
245,248
245,252
245,254
245,255
246,247
247,256
247,257
247,258
247,259
247,260
247,261
248,256
248,257
248,277
249,257
249,259
250,256
250,260
250,278
251,256
251,257
251,258
252,256
252,257
252,260
252,261
252,269
253,256
253,257
254,256
254,257
254,258
254,259
254,261
254,270
255,256
255,281
256,262
256,263
257,265
257,266
257,280
257,281
258,262
258,267
258,269
258,279
259,262
259,263
259,264
259,265
259,266
259,268
260,262
260,263
260,264
260,270
261,262
261,263
261,264
261,265
261,266
261,267
262,271
262,272
262,273
263,271
263,272
263,273
263,276
263,279
264,277
264,293
265,271
265,275
265,278
266,271
267,271
267,272
267,273
267,274
267,280
267,281
268,271
268,272
268,273
268,274
268,281
269,271
269,272
269,273
269,281
270,271
270,272
270,274
270,280
270,281
271,282
271,283
271,284
271,285
271,286
271,287
272,282
272,283
272,284
272,285
272,286
272,287
273,282
274,282
274,283
274,284
274,285
274,286
274,293
275,282
275,286
276,282
276,283
276,284
276,285
276,293
277,282
277,283
277,284
277,285
277,286
278,282
278,284
279,283
280,433
281,282
282,288
282,289
282,290
282,294
282,296
283,288
283,291
283,292
283,295
283,304
284,294
284,295
284,296
285,288
285,304
286,288
286,290
287,288
287,289
287,290
287,291
287,292
287,293
288,297
288,298
288,299
288,300
289,411
289,422
290,297
290,298
290,302
290,304
290,310
291,297
291,298
292,297
292,300
293,297
294,297
294,298
294,301
295,297
295,298
296,297
296,298
296,299
296,300
296,301
296,302
296,303
296,304
297,305
297,306
297,307
297,308
297,309
297,315
298,305
298,306
299,305
299,306
299,307
300,305
300,306
300,309
300,310
301,308
302,305
302,306
302,307
302,308
302,309
302,314
302,315
303,305
303,306
303,307
303,308
304,305
304,306
305,311
306,311
306,312
306,321
307,311
308,311
308,316
308,317
309,311
309,312
309,313
309,317
309,318
309,321
310,311
310,312
310,314
310,315
311,324
312,320
312,322
312,323
313,319
313,320
314,319
314,320
314,321
315,493
316,346
316,352
316,355
317,319
318,334
318,366
318,367
319,325
319,326
319,327
319,328
319,329
320,325
320,326
320,327
320,340
321,325
321,326
322,325
322,326
322,327
322,329
323,325
323,326
323,327
323,328
323,329
324,325
324,326
324,327
325,330
326,330
326,331
326,333
326,334
327,330
327,365
327,366
328,331
328,332
329,330
330,335
330,336
330,337
331,335
331,336
331,337
331,338
331,339
331,341
332,338
332,339
332,340
333,336
334,359
334,369
334,370
335,342
335,344
335,367
336,342
336,343
336,347
337,342
337,367
338,877
339,342
339,343
339,345
339,346
340,342
340,367
341,342
341,366
341,367
342,348
342,349
343,525
344,370
345,348
345,349
345,350
345,351
345,352
345,353
345,354
346,348
346,349
346,350
346,351
346,353
346,354
347,348
347,349
347,351
347,355
348,356
348,357
348,358
348,359
348,360
349,356
349,357
349,358
349,369
350,356
350,357
350,358
350,359
350,360
351,356
352,356
352,357
353,356
354,356
354,357
354,361
355,358
355,360
356,362
356,370
356,373
357,362
357,373
358,364
358,410
359,362
359,373
360,469
360,476
361,363
361,365
361,366
361,367
362,368
362,371
362,372
362,374
363,368
363,369
363,370
363,371
364,418
365,368
365,369
365,370
365,371
365,372
365,374
366,368
366,369
366,370
366,377
367,368
367,373
367,374
368,375
368,376
369,506
370,375
370,378
371,375
371,376
371,377
372,375
372,376
372,377
373,375
373,376
374,375
374,376
374,377
374,378
375,379
375,381
375,388
375,389
376,379
376,380
376,381
376,382
376,383
376,384
377,379
377,380
377,381
377,382
377,383
377,384
378,379
378,380
379,385
379,386
379,390
379,393
380,385
380,386
380,387
381,449
382,385
382,386
382,389
382,405
383,385
383,387
383,388
384,385
384,386
384,404
384,412
385,391
385,394
385,395
386,691
387,391
387,414
388,391
388,392
388,393
388,394
388,395
388,405
389,391
389,392
389,393
389,412
389,413
390,392
390,396
390,401
390,402
390,403
391,397
391,400
391,401
391,423
392,397
392,398
392,404
393,400
393,402
393,420
394,397
394,398
394,399
395,398
395,403
396,397
396,399
396,405
396,420
397,406
397,407
397,408
397,409
397,410
397,411
398,406
398,407
398,409
398,414
399,413
399,474
400,406
400,408
400,411
401,410
401,450
402,406
402,407
402,408
402,425
403,451
403,559
404,406
404,409
405,412
405,429
406,415
406,416
406,417
406,418
407,415
407,416
407,417
407,426
408,415
408,416
409,415
409,416
410,415
410,419
410,502
411,745
412,415
412,437
413,508
414,415
414,418
414,420
415,427
415,633
416,422
416,427
416,428
416,429
417,421
417,422
417,424
418,421
418,426
419,425
420,421
420,423
420,428
421,430
421,442
422,430
422,431
422,432
422,433
422,434
423,430
423,431
423,432
423,433
424,430
424,434
425,479
425,503
426,430
426,431
426,432
427,928
427,966
427,973
428,442
428,465
429,430
429,431
429,432
429,433
429,434
430,435
430,436
430,437
431,439
432,435
432,436
432,438
432,453
433,435
433,436
433,437
434,435
434,436
434,437
434,453
435,440
435,441
435,444
435,446
436,440
436,443
436,445
437,441
438,440
439,440
439,441
439,442
440,447
440,448
440,449
441,447
441,448
441,449
441,450
441,464
441,466
442,447
442,448
442,453
442,457
443,447
443,448
443,450
444,447
444,448
444,449
445,451
445,452
447,454
448,455
449,454
449,458
450,454
450,456
451,596
451,703
451,746
452,457
453,507
453,517
454,461
454,463
454,476
455,459
455,460
455,461
455,462
456,465
456,668
457,464
457,466
458,462
459,489
459,506
460,467
460,468
460,470
461,467
461,468
461,469
462,467
462,468
462,525
462,526
463,467
463,526
464,530
465,532
466,469
467,527
468,473
468,556
469,471
469,472
469,474
469,475
469,477
470,476
471,478
471,479
471,480
471,483
472,478
473,740
473,760
474,478
474,480
474,481
475,479
475,484
475,492
476,478
476,479
476,503
477,482
477,485
478,487
478,490
479,486
479,491
480,628
481,488
482,486
482,487
482,488
482,489
483,486
483,487
483,489
484,524
485,492
486,493
487,495
488,493
488,497
489,496
489,498
490,724
491,499
491,526
492,493
492,494
492,495
492,496
492,498
492,499
493,500
493,501
493,504
493,505
493,506
494,500
494,501
494,502
494,503
495,500
495,501
496,500
496,751
496,790
497,500
497,738
497,753
498,502
498,504
499,532
500,702
501,507
501,508
502,507
502,508
503,689
503,703
504,519
504,534
505,508
505,519
506,507
507,509
507,511
507,512
507,513
507,514
508,509
508,510
509,521
510,517
510,523
511,515
511,516
512,518
512,522
513,516
514,519
514,520
515,523
515,558
516,525
516,526
517,711
517,796
518,524
519,771
520,523
520,524
520,525
520,526
520,527
521,523
521,524
522,584
523,576
524,531
525,529
526,528
526,538
527,528
527,529
527,530
527,531
528,532
528,533
528,534
528,536
528,537
528,539
529,532
529,668
530,535
530,594
530,597
530,621
531,532
531,534
531,538
531,550
532,641
533,540
533,541
534,541
534,542
534,543
534,546
535,769
535,786
536,540
536,541
536,564
537,540
537,544
538,554
539,540
539,545
540,549
541,547
542,548
542,551
542,552
543,553
543,557
544,547
544,548
544,549
545,550
546,547
546,548
546,549
547,563
548,554
548,555
548,557
548,561
548,563
549,554
549,555
549,576
550,554
550,556
551,554
551,558
552,554
552,555
552,556
553,723
553,910
553,926
554,559
554,562
554,565
554,566
554,581
554,588
555,560
555,590
557,562
557,564
557,606
558,561
558,563
559,567
559,573
560,567
561,650
562,567
563,568
563,571
563,572
564,586
564,614
564,666
565,911
565,931
566,569
566,570
566,600
566,605
567,580
567,610
568,581
569,574
570,577
570,578
570,579
571,574
571,575
571,576
571,666
572,644
572,710
572,711
573,574
573,602
574,590
575,582
575,588
576,703
578,582
578,585
578,587
578,621
579,582
579,583
579,586
579,589
580,582
580,583
580,584
580,591
580,592
581,704
581,713
582,593
582,635
583,593
583,598
584,626
585,833
585,853
585,892
585,901
585,929
585,958
586,677
587,593
587,594
587,596
587,665
588,596
588,882
588,905
589,599
589,611
589,647
590,593
590,597
590,647
591,593
591,595
591,600
592,605
593,601
593,608
594,601
594,602
594,603
594,639
595,603
595,605
596,879
596,913
597,601
597,768
598,602
599,601
599,606
600,604
600,607
601,706
602,683
603,609
603,613
604,663
605,609
605,666
606,610
606,656
607,611
608,612
608,614
609,615
609,616
609,617
609,620
610,615
610,620
610,621
611,615
611,619
611,673
612,790
613,618
614,615
614,616
615,622
615,624
615,775
615,790
616,625
617,622
617,623
617,626
618,623
618,647
618,690
619,622
619,698
620,709
621,627
621,628
622,741
622,797
623,774
623,837
623,943
625,629
625,634
626,629
626,630
626,634
626,636
627,635
627,668
628,631
628,632
628,633
629,637
630,637
630,638
630,641
631,640
631,660
631,662
632,639
632,671
633,637
634,638
635,637
636,684
637,642
637,648
638,645
638,646
639,642
639,643
640,642
640,643
640,644
640,645
640,646
641,642
641,647
642,649
642,650
642,651
642,675
643,649
643,653
643,654
643,655
644,649
644,657
645,649
645,668
646,649
646,658
646,682
647,652
647,656
647,678
648,649
648,650
648,651
648,652
649,763
650,659
650,663
651,664
652,659
652,660
652,661
653,661
653,666
654,683
655,659
655,693
656,662
657,659
657,665
658,742
659,844
659,889
660,671
660,760
660,799
661,672
661,708
662,667
663,667
663,669
663,670
664,673
665,667
665,713
666,668
667,692
668,680
668,711
669,674
669,678
670,677
671,862
671,882
671,920
672,675
672,676
673,674
673,676
674,679
674,684
675,681
676,680
676,697
676,711
677,679
677,682
677,685
677,690
678,679
678,683
679,686
679,688
680,686
680,687
681,686
681,711
682,687
682,696
683,686
683,687
683,689
684,689
684,690
684,695
685,810
686,692
686,713
687,691
687,692
687,695
688,693
688,694
689,691
690,696
690,740
691,702
691,704
692,698
692,699
692,703
692,718
693,697
693,740
693,787
694,700
695,701
696,808
696,892
697,739
698,739
698,905
699,706
699,707
699,712
700,705
700,708
700,711
700,747
701,705
701,713
702,747
703,705
703,709
703,747
704,705
704,706
704,710
704,731
705,714
705,715
705,732
706,714
706,716
708,987
709,717
710,714
710,718
711,801
712,782
713,744
714,719
714,723
715,719
715,720
716,722
717,724
718,721
719,725
719,752
719,785
720,727
720,729
720,768
721,725
721,726
721,728
722,730
722,732
723,743
724,731
724,749
725,740
725,762
726,735
726,787
727,740
727,813
728,733
728,734
728,741
729,736
729,739
729,742
729,797
730,733
730,738
731,737
731,755
731,762
732,748
732,751
733,742
734,746
734,747
735,868
735,877
736,748
737,742
737,790
738,912
739,778
739,922
740,743
740,745
740,803
741,742
741,744
742,753
742,785
743,750
743,928
744,786
744,796
744,811
744,829
745,751
745,754
745,802
745,828
746,749
746,750
746,823
747,749
747,752
747,797
748,755
748,760
749,760
749,761
751,801
752,756
752,762
753,756
753,759
754,757
754,758
755,785
755,838
755,889
756,763
756,766
757,769
757,770
758,765
758,848
758,854
759,770
759,862
759,945
760,764
761,768
762,767
762,810
763,771
763,851
763,852
764,772
766,774
766,776
767,774
767,775
768,771
768,777
769,773
769,906
770,881
771,781
772,778
772,785
772,798
772,831
772,832
773,778
773,782
774,784
775,780
775,786
775,850
775,889
776,779
776,783
776,801
778,824
778,852
779,788
780,996
781,789
782,790
782,853
782,901
783,826
783,867
785,861
786,787
786,871
786,884
787,983
788,794
788,795
788,796
789,791
789,792
789,793
789,798
789,799
790,797
790,835
790,860
791,800
791,805
792,883
792,895
792,916
793,800
794,920
795,802
795,804
796,803
796,856
796,973
797,875
797,879
797,908
798,958
799,801
799,886
800,806
801,809
801,810
801,812
802,806
802,807
802,808
802,811
802,814
802,815
804,947
805,806
805,807
805,813
805,829
806,907
806,915
806,936
807,819
807,918
809,825
809,905
810,822
810,832
811,818
811,822
811,883
812,816
812,817
812,883
812,890
812,892
813,817
813,820
813,894
814,823
815,816
815,821
815,824
815,890
816,826
816,830
818,879
819,889
820,828
820,859
820,864
822,913
823,827
823,829
824,916
825,991
826,833
826,839
827,831
828,832
828,835
828,898
828,919
829,836
829,840
829,918
830,834
831,838
831,840
832,837
834,841
836,839
836,908
837,845
837,931
837,977
838,848
839,842
839,873
840,843
840,844
840,847
841,846
841,990
843,853
843,908
843,928
843,933
844,856
844,882
844,977
845,849
846,850
846,854
846,855
847,898
848,851
848,852
849,879
849,917
850,989
851,858
852,948
853,862
854,861
855,859
855,860
856,857
856,1000
858,863
858,864
859,865
859,867
859,943
860,960
861,974
861,986
862,866
863,871
864,869
864,872
864,873
866,941
867,868
867,870
868,878
868,899
869,879
871,874
871,877
872,874
873,875
873,876
873,880
874,881
875,882
875,884
876,887
876,888
876,928
877,883
877,886
877,890
877,922
877,935
878,885
878,889
879,904
880,920
881,892
881,904
882,913
882,954
882,984
883,894
883,915
883,936
884,891
884,893
884,895
885,896
885,983
886,896
887,909
889,924
890,904
890,984
891,899
891,905
892,897
892,906
893,899
893,900
893,902
893,903
894,901
894,937
895,898
895,904
895,924
895,973
895,983
896,937
897,986
900,997
902,907
902,998
904,911
904,933
905,909
906,908
906,910
906,949
906,956
906,977
907,945
908,919
909,912
909,914
909,915
909,916
910,913
910,917
910,918
910,944
911,912
911,928
913,922
913,936
913,951
914,921
914,924
914,925
915,920
916,964
917,967
918,973
919,923
919,937
919,950
920,926
920,931
921,929
921,930
922,927
922,928
922,966
923,957
924,932
924,933
926,934
926,938
929,935
930,970
931,937
933,936
934,940
934,942
935,961
938,939
938,941
938,943
938,944
938,945
939,955
940,962
941,959
943,947
943,949
944,948
945,946
946,956
947,952
947,953
948,950
948,954
948,955
949,951
953,958
953,961
954,989
955,957
955,959
955,960
956,962
957,964
958,977
959,965
961,963
962,966
963,970
963,971
963,972
963,975
964,990
965,969
965,973
966,967
966,968
966,974
967,981
967,983
968,980
972,977
973,975
973,976
973,982
974,978
974,979
975,984
977,1000
981,985
983,986
984,988
985,990
985,991
985,992
986,987
986,989
988,994
988,995
988,998
989,993
989,994
989,996
989,999
991,997
991,1000

<end>
